; 
(set-info :status unknown)
(declare-fun text () (Array Int Int))
(declare-fun pat_sym__0___0 () Int)
(declare-fun pat_sym__1___0 () Int)
(declare-fun pat_sym__2___0 () Int)
(declare-fun delta1 () (Array Int Int))
(declare-fun delta2 () (Array Int Int))
(declare-fun i_sym__0___1 () Int)
(declare-fun LB_1_sym__0___0 () Int)
(declare-fun i_sym__0___2 () Int)
(declare-fun i_sym__0___3 () Int)
(declare-fun i_sym__0___4 () Int)
(declare-fun i_sym__0___5 () Int)
(declare-fun i_sym__0___6 () Int)
(declare-fun i_sym__0___7 () Int)
(assert
 (>= (select text 0) 0))
(assert
 (< (select text 0) 256))
(assert
 (>= (select text 1) 0))
(assert
 (< (select text 1) 256))
(assert
 (>= (select text 2) 0))
(assert
 (< (select text 2) 256))
(assert
 (>= (select text 3) 0))
(assert
 (< (select text 3) 256))
(assert
 (>= (select text 4) 0))
(assert
 (< (select text 4) 256))
(assert
 (>= (select text 5) 0))
(assert
 (< (select text 5) 256))
(assert
 (< pat_sym__0___0 256))
(assert
 (>= pat_sym__0___0 0))
(assert
 (< pat_sym__1___0 256))
(assert
 (>= pat_sym__1___0 0))
(assert
 (< pat_sym__2___0 256))
(assert
 (>= pat_sym__2___0 0))
(assert
 (= pat_sym__0___0 97))
(assert
 (= pat_sym__1___0 98))
(assert
 (= pat_sym__2___0 99))
(assert
 (= (select delta1 0) 3))
(assert
 (= (select delta1 1) 3))
(assert
 (= (select delta1 2) 3))
(assert
 (= (select delta1 3) 3))
(assert
 (= (select delta1 4) 3))
(assert
 (= (select delta1 5) 3))
(assert
 (= (select delta1 6) 3))
(assert
 (= (select delta1 7) 3))
(assert
 (= (select delta1 8) 3))
(assert
 (= (select delta1 9) 3))
(assert
 (= (select delta1 10) 3))
(assert
 (= (select delta1 11) 3))
(assert
 (= (select delta1 12) 3))
(assert
 (= (select delta1 13) 3))
(assert
 (= (select delta1 14) 3))
(assert
 (= (select delta1 15) 3))
(assert
 (= (select delta1 16) 3))
(assert
 (= (select delta1 17) 3))
(assert
 (= (select delta1 18) 3))
(assert
 (= (select delta1 19) 3))
(assert
 (= (select delta1 20) 3))
(assert
 (= (select delta1 21) 3))
(assert
 (= (select delta1 22) 3))
(assert
 (= (select delta1 23) 3))
(assert
 (= (select delta1 24) 3))
(assert
 (= (select delta1 25) 3))
(assert
 (= (select delta1 26) 3))
(assert
 (= (select delta1 27) 3))
(assert
 (= (select delta1 28) 3))
(assert
 (= (select delta1 29) 3))
(assert
 (= (select delta1 30) 3))
(assert
 (= (select delta1 31) 3))
(assert
 (= (select delta1 32) 3))
(assert
 (= (select delta1 33) 3))
(assert
 (= (select delta1 34) 3))
(assert
 (= (select delta1 35) 3))
(assert
 (= (select delta1 36) 3))
(assert
 (= (select delta1 37) 3))
(assert
 (= (select delta1 38) 3))
(assert
 (= (select delta1 39) 3))
(assert
 (= (select delta1 40) 3))
(assert
 (= (select delta1 41) 3))
(assert
 (= (select delta1 42) 3))
(assert
 (= (select delta1 43) 3))
(assert
 (= (select delta1 44) 3))
(assert
 (= (select delta1 45) 3))
(assert
 (= (select delta1 46) 3))
(assert
 (= (select delta1 47) 3))
(assert
 (= (select delta1 48) 3))
(assert
 (= (select delta1 49) 3))
(assert
 (= (select delta1 50) 3))
(assert
 (= (select delta1 51) 3))
(assert
 (= (select delta1 52) 3))
(assert
 (= (select delta1 53) 3))
(assert
 (= (select delta1 54) 3))
(assert
 (= (select delta1 55) 3))
(assert
 (= (select delta1 56) 3))
(assert
 (= (select delta1 57) 3))
(assert
 (= (select delta1 58) 3))
(assert
 (= (select delta1 59) 3))
(assert
 (= (select delta1 60) 3))
(assert
 (= (select delta1 61) 3))
(assert
 (= (select delta1 62) 3))
(assert
 (= (select delta1 63) 3))
(assert
 (= (select delta1 64) 3))
(assert
 (= (select delta1 65) 3))
(assert
 (= (select delta1 66) 3))
(assert
 (= (select delta1 67) 3))
(assert
 (= (select delta1 68) 3))
(assert
 (= (select delta1 69) 3))
(assert
 (= (select delta1 70) 3))
(assert
 (= (select delta1 71) 3))
(assert
 (= (select delta1 72) 3))
(assert
 (= (select delta1 73) 3))
(assert
 (= (select delta1 74) 3))
(assert
 (= (select delta1 75) 3))
(assert
 (= (select delta1 76) 3))
(assert
 (= (select delta1 77) 3))
(assert
 (= (select delta1 78) 3))
(assert
 (= (select delta1 79) 3))
(assert
 (= (select delta1 80) 3))
(assert
 (= (select delta1 81) 3))
(assert
 (= (select delta1 82) 3))
(assert
 (= (select delta1 83) 3))
(assert
 (= (select delta1 84) 3))
(assert
 (= (select delta1 85) 3))
(assert
 (= (select delta1 86) 3))
(assert
 (= (select delta1 87) 3))
(assert
 (= (select delta1 88) 3))
(assert
 (= (select delta1 89) 3))
(assert
 (= (select delta1 90) 3))
(assert
 (= (select delta1 91) 3))
(assert
 (= (select delta1 92) 3))
(assert
 (= (select delta1 93) 3))
(assert
 (= (select delta1 94) 3))
(assert
 (= (select delta1 95) 3))
(assert
 (= (select delta1 96) 3))
(assert
 (= (select delta1 97) 2))
(assert
 (= (select delta1 98) 1))
(assert
 (= (select delta1 99) 3))
(assert
 (= (select delta1 100) 3))
(assert
 (= (select delta1 101) 3))
(assert
 (= (select delta1 102) 3))
(assert
 (= (select delta1 103) 3))
(assert
 (= (select delta1 104) 3))
(assert
 (= (select delta1 105) 3))
(assert
 (= (select delta1 106) 3))
(assert
 (= (select delta1 107) 3))
(assert
 (= (select delta1 108) 3))
(assert
 (= (select delta1 109) 3))
(assert
 (= (select delta1 110) 3))
(assert
 (= (select delta1 111) 3))
(assert
 (= (select delta1 112) 3))
(assert
 (= (select delta1 113) 3))
(assert
 (= (select delta1 114) 3))
(assert
 (= (select delta1 115) 3))
(assert
 (= (select delta1 116) 3))
(assert
 (= (select delta1 117) 3))
(assert
 (= (select delta1 118) 3))
(assert
 (= (select delta1 119) 3))
(assert
 (= (select delta1 120) 3))
(assert
 (= (select delta1 121) 3))
(assert
 (= (select delta1 122) 3))
(assert
 (= (select delta1 123) 3))
(assert
 (= (select delta1 124) 3))
(assert
 (= (select delta1 125) 3))
(assert
 (= (select delta1 126) 3))
(assert
 (= (select delta1 127) 3))
(assert
 (= (select delta1 128) 3))
(assert
 (= (select delta1 129) 3))
(assert
 (= (select delta1 130) 3))
(assert
 (= (select delta1 131) 3))
(assert
 (= (select delta1 132) 3))
(assert
 (= (select delta1 133) 3))
(assert
 (= (select delta1 134) 3))
(assert
 (= (select delta1 135) 3))
(assert
 (= (select delta1 136) 3))
(assert
 (= (select delta1 137) 3))
(assert
 (= (select delta1 138) 3))
(assert
 (= (select delta1 139) 3))
(assert
 (= (select delta1 140) 3))
(assert
 (= (select delta1 141) 3))
(assert
 (= (select delta1 142) 3))
(assert
 (= (select delta1 143) 3))
(assert
 (= (select delta1 144) 3))
(assert
 (= (select delta1 145) 3))
(assert
 (= (select delta1 146) 3))
(assert
 (= (select delta1 147) 3))
(assert
 (= (select delta1 148) 3))
(assert
 (= (select delta1 149) 3))
(assert
 (= (select delta1 150) 3))
(assert
 (= (select delta1 151) 3))
(assert
 (= (select delta1 152) 3))
(assert
 (= (select delta1 153) 3))
(assert
 (= (select delta1 154) 3))
(assert
 (= (select delta1 155) 3))
(assert
 (= (select delta1 156) 3))
(assert
 (= (select delta1 157) 3))
(assert
 (= (select delta1 158) 3))
(assert
 (= (select delta1 159) 3))
(assert
 (= (select delta1 160) 3))
(assert
 (= (select delta1 161) 3))
(assert
 (= (select delta1 162) 3))
(assert
 (= (select delta1 163) 3))
(assert
 (= (select delta1 164) 3))
(assert
 (= (select delta1 165) 3))
(assert
 (= (select delta1 166) 3))
(assert
 (= (select delta1 167) 3))
(assert
 (= (select delta1 168) 3))
(assert
 (= (select delta1 169) 3))
(assert
 (= (select delta1 170) 3))
(assert
 (= (select delta1 171) 3))
(assert
 (= (select delta1 172) 3))
(assert
 (= (select delta1 173) 3))
(assert
 (= (select delta1 174) 3))
(assert
 (= (select delta1 175) 3))
(assert
 (= (select delta1 176) 3))
(assert
 (= (select delta1 177) 3))
(assert
 (= (select delta1 178) 3))
(assert
 (= (select delta1 179) 3))
(assert
 (= (select delta1 180) 3))
(assert
 (= (select delta1 181) 3))
(assert
 (= (select delta1 182) 3))
(assert
 (= (select delta1 183) 3))
(assert
 (= (select delta1 184) 3))
(assert
 (= (select delta1 185) 3))
(assert
 (= (select delta1 186) 3))
(assert
 (= (select delta1 187) 3))
(assert
 (= (select delta1 188) 3))
(assert
 (= (select delta1 189) 3))
(assert
 (= (select delta1 190) 3))
(assert
 (= (select delta1 191) 3))
(assert
 (= (select delta1 192) 3))
(assert
 (= (select delta1 193) 3))
(assert
 (= (select delta1 194) 3))
(assert
 (= (select delta1 195) 3))
(assert
 (= (select delta1 196) 3))
(assert
 (= (select delta1 197) 3))
(assert
 (= (select delta1 198) 3))
(assert
 (= (select delta1 199) 3))
(assert
 (= (select delta1 200) 3))
(assert
 (= (select delta1 201) 3))
(assert
 (= (select delta1 202) 3))
(assert
 (= (select delta1 203) 3))
(assert
 (= (select delta1 204) 3))
(assert
 (= (select delta1 205) 3))
(assert
 (= (select delta1 206) 3))
(assert
 (= (select delta1 207) 3))
(assert
 (= (select delta1 208) 3))
(assert
 (= (select delta1 209) 3))
(assert
 (= (select delta1 210) 3))
(assert
 (= (select delta1 211) 3))
(assert
 (= (select delta1 212) 3))
(assert
 (= (select delta1 213) 3))
(assert
 (= (select delta1 214) 3))
(assert
 (= (select delta1 215) 3))
(assert
 (= (select delta1 216) 3))
(assert
 (= (select delta1 217) 3))
(assert
 (= (select delta1 218) 3))
(assert
 (= (select delta1 219) 3))
(assert
 (= (select delta1 220) 3))
(assert
 (= (select delta1 221) 3))
(assert
 (= (select delta1 222) 3))
(assert
 (= (select delta1 223) 3))
(assert
 (= (select delta1 224) 3))
(assert
 (= (select delta1 225) 3))
(assert
 (= (select delta1 226) 3))
(assert
 (= (select delta1 227) 3))
(assert
 (= (select delta1 228) 3))
(assert
 (= (select delta1 229) 3))
(assert
 (= (select delta1 230) 3))
(assert
 (= (select delta1 231) 3))
(assert
 (= (select delta1 232) 3))
(assert
 (= (select delta1 233) 3))
(assert
 (= (select delta1 234) 3))
(assert
 (= (select delta1 235) 3))
(assert
 (= (select delta1 236) 3))
(assert
 (= (select delta1 237) 3))
(assert
 (= (select delta1 238) 3))
(assert
 (= (select delta1 239) 3))
(assert
 (= (select delta1 240) 3))
(assert
 (= (select delta1 241) 3))
(assert
 (= (select delta1 242) 3))
(assert
 (= (select delta1 243) 3))
(assert
 (= (select delta1 244) 3))
(assert
 (= (select delta1 245) 3))
(assert
 (= (select delta1 246) 3))
(assert
 (= (select delta1 247) 3))
(assert
 (= (select delta1 248) 3))
(assert
 (= (select delta1 249) 3))
(assert
 (= (select delta1 250) 3))
(assert
 (= (select delta1 251) 3))
(assert
 (= (select delta1 252) 3))
(assert
 (= (select delta1 253) 3))
(assert
 (= (select delta1 254) 3))
(assert
 (= (select delta1 255) 3))
(assert
 (let ((?x810 (select delta2 0)))
 (= ?x810 5)))
(assert
 (= (select delta2 1) 4))
(assert
 (let ((?x814 (select delta2 2)))
 (= ?x814 1)))
(assert
 (= i_sym__0___1 2))
(assert
 (< i_sym__0___1 6))
(assert
 (> LB_1_sym__0___0 0))
(assert
 (and (distinct (select text i_sym__0___1) pat_sym__2___0) true))
(assert
 (> LB_1_sym__0___0 0))
(assert
 (let ((?x814 (select delta2 2)))
 (>= (select delta1 (select text i_sym__0___1)) ?x814)))
(assert
 (= i_sym__0___2 (+ i_sym__0___1 (select delta1 (select text i_sym__0___1)))))
(assert
 (< i_sym__0___2 6))
(assert
 (> LB_1_sym__0___0 0))
(assert
 (and (distinct (select text i_sym__0___2) pat_sym__2___0) true))
(assert
 (> LB_1_sym__0___0 0))
(assert
 (let ((?x814 (select delta2 2)))
 (>= (select delta1 (select text i_sym__0___2)) ?x814)))
(assert
 (= i_sym__0___3 (+ i_sym__0___2 (select delta1 (select text i_sym__0___2)))))
(assert
 (< i_sym__0___3 6))
(assert
 (> LB_1_sym__0___0 0))
(assert
 (and (distinct (select text i_sym__0___3) pat_sym__2___0) true))
(assert
 (> LB_1_sym__0___0 0))
(assert
 (let ((?x814 (select delta2 2)))
 (>= (select delta1 (select text i_sym__0___3)) ?x814)))
(assert
 (= i_sym__0___4 (+ i_sym__0___3 (select delta1 (select text i_sym__0___3)))))
(assert
 (< i_sym__0___4 6))
(assert
 (> LB_1_sym__0___0 0))
(assert
 (= (select text i_sym__0___4) pat_sym__2___0))
(assert
 (= i_sym__0___5 (- i_sym__0___4 1)))
(assert
 (= (select text i_sym__0___5) pat_sym__1___0))
(assert
 (= i_sym__0___6 (- i_sym__0___5 1)))
(assert
 (and (distinct (select text i_sym__0___6) pat_sym__0___0) true))
(assert
 (> LB_1_sym__0___0 0))
(assert
 (let ((?x810 (select delta2 0)))
 (< (select delta1 (select text i_sym__0___6)) ?x810)))
(assert
 (= i_sym__0___7 (+ i_sym__0___6 (select delta2 0))))
(check-sat)
